proyfinal/src/viki/013/experimentInOfficeAgust.take6.output/4b2237f7-b6e5-4e12-a38a-bb452bcec5f1.als.dat
{'cnf.clauses': '118081',
 'cnf.totvars': '69608',
 'conflict literals': '2',
 'conflicts': '3',
 'decisions': '2338',
 'memused.mb': '15.42',
 'outcome': 'UNSAT',
 'propagations': '24434',
 'restarts': '1',
 'solver.msecs': 32,
 'task.msecs': 83}
