proyfinal/src/viki/013/experimentInOfficeAgust.take6.output/4b2237f7-b6e5-4e12-a38a-bb452bcec5f1.als.out
Reading from standard input... Use '--help' for help.
============================[ Problem Statistics ]=============================
|                                                                             |
|  Number of variables:         69608                                         |
|  Number of clauses:          118081                                         |
|  Parse time:                   0.03 s                                       |
|                                                                             |
============================[ Search Statistics ]==============================
| Conflicts |          ORIGINAL         |          LEARNT          | Progress |
|           |    Vars  Clauses Literals |    Limit  Clauses Lit/Cl |          |
===============================================================================
===============================================================================
restarts              : 1
conflicts             : 3              (93 /sec)
decisions             : 2338           (0.00 % random) (72230 /sec)
propagations          : 24434          (754858 /sec)
conflict literals     : 2              (0.00 % deleted)
Memory used           : 15.42 MB
CPU time              : 0.032369 s

UNSATISFIABLE
